(set-info :smt-lib-version 2.6)
(set-logic QF_NIA)
(set-info :source |
Generated by: Cristina Borralleras, Daniel Larraz, Albert Oliveras, Enric Rodriguez-Carbonell, Albert Rubio
Generated on: 2017-04-27
Generator: VeryMax
Application: Termination proving
Target solver: barcelogic
|)
(set-info :license "https://creativecommons.org/licenses/by/4.0/")
(set-info :category "industrial")
(set-info :status unsat)
(declare-fun Nl6arg11 () Int)
(declare-fun Nl6arg21 () Int)
(declare-fun Nl6arg31 () Int)
(declare-fun Nl6arg41 () Int)
(declare-fun Nl6arg51 () Int)
(declare-fun Nl6arg61 () Int)
(declare-fun lam0n0 () Int)
(declare-fun lam0n1 () Int)
(declare-fun lam0n2 () Int)
(declare-fun lam0n3 () Int)
(declare-fun lam0n4 () Int)
(declare-fun lam0n5 () Int)
(declare-fun lam0n6 () Int)
(declare-fun lam0n7 () Int)
(declare-fun lam0n8 () Int)
(declare-fun lam0n9 () Int)
(declare-fun lam0n10 () Int)
(declare-fun lam0n11 () Int)
(declare-fun lam0n12 () Int)
(declare-fun lam0n13 () Int)
(declare-fun lam0n14 () Int)
(declare-fun lam0n15 () Int)
(declare-fun lam0n16 () Int)
(declare-fun lam0n17 () Int)
(declare-fun lam0n18 () Int)
(declare-fun lam0n19 () Int)
(declare-fun lam0n20 () Int)
(declare-fun lam0n21 () Int)
(declare-fun lam0n22 () Int)
(declare-fun lam0n23 () Int)
(declare-fun Nl6CT1 () Int)
(declare-fun lam0n24 () Int)
(declare-fun lam0n25 () Int)
(declare-fun lam0n26 () Int)
(declare-fun lam1n0 () Int)
(declare-fun lam1n1 () Int)
(declare-fun lam1n2 () Int)
(declare-fun lam1n3 () Int)
(declare-fun lam1n4 () Int)
(declare-fun lam1n5 () Int)
(declare-fun lam1n6 () Int)
(declare-fun lam1n7 () Int)
(declare-fun lam1n8 () Int)
(declare-fun lam1n9 () Int)
(declare-fun lam1n10 () Int)
(declare-fun lam1n11 () Int)
(declare-fun lam1n12 () Int)
(declare-fun lam1n13 () Int)
(declare-fun lam1n14 () Int)
(declare-fun lam1n15 () Int)
(declare-fun lam1n16 () Int)
(declare-fun lam1n17 () Int)
(declare-fun lam1n18 () Int)
(declare-fun lam1n19 () Int)
(declare-fun lam1n20 () Int)
(declare-fun lam1n21 () Int)
(declare-fun lam1n22 () Int)
(declare-fun lam1n23 () Int)
(declare-fun lam1n24 () Int)
(declare-fun lam1n25 () Int)
(declare-fun lam2n0 () Int)
(declare-fun lam2n1 () Int)
(declare-fun lam2n2 () Int)
(declare-fun lam2n3 () Int)
(declare-fun lam2n4 () Int)
(declare-fun lam2n5 () Int)
(declare-fun lam2n6 () Int)
(declare-fun lam2n7 () Int)
(declare-fun lam2n8 () Int)
(declare-fun lam2n9 () Int)
(declare-fun lam2n10 () Int)
(declare-fun lam2n11 () Int)
(declare-fun lam2n12 () Int)
(declare-fun lam2n13 () Int)
(declare-fun lam2n14 () Int)
(declare-fun lam2n15 () Int)
(declare-fun lam2n16 () Int)
(declare-fun lam2n17 () Int)
(declare-fun lam2n18 () Int)
(declare-fun lam2n19 () Int)
(declare-fun lam2n20 () Int)
(declare-fun lam2n21 () Int)
(declare-fun lam2n22 () Int)
(declare-fun lam2n23 () Int)
(declare-fun lam2n24 () Int)
(declare-fun lam2n25 () Int)
(declare-fun lam2n26 () Int)
(declare-fun lam2n27 () Int)
(declare-fun lam3n0 () Int)
(declare-fun lam3n1 () Int)
(declare-fun lam3n2 () Int)
(declare-fun lam3n3 () Int)
(declare-fun lam3n4 () Int)
(declare-fun lam3n5 () Int)
(declare-fun lam3n6 () Int)
(declare-fun lam3n7 () Int)
(declare-fun lam3n8 () Int)
(declare-fun lam3n9 () Int)
(declare-fun lam3n10 () Int)
(declare-fun lam3n11 () Int)
(declare-fun lam3n12 () Int)
(declare-fun lam3n13 () Int)
(declare-fun lam3n14 () Int)
(declare-fun lam3n15 () Int)
(declare-fun lam3n16 () Int)
(declare-fun lam3n17 () Int)
(declare-fun lam3n18 () Int)
(declare-fun lam3n19 () Int)
(declare-fun lam3n20 () Int)
(declare-fun lam3n21 () Int)
(declare-fun lam3n22 () Int)
(declare-fun lam3n23 () Int)
(declare-fun lam3n24 () Int)
(declare-fun lam3n25 () Int)
(declare-fun lam3n26 () Int)
(declare-fun undef1 () Int)
(declare-fun undef75 () Int)
(declare-fun undef83 () Int)
(declare-fun undef585 () Int)
(declare-fun arg3 () Int)
(declare-fun undef586 () Int)
(declare-fun undef74 () Int)
(declare-fun undef84 () Int)
(declare-fun undef85 () Int)
(declare-fun undef317 () Int)
(declare-fun undef326 () Int)
(declare-fun undef77 () Int)
(declare-fun undef88 () Int)
(declare-fun undef92 () Int)
(declare-fun undef93 () Int)
(declare-fun undef94 () Int)
(declare-fun arg2 () Int)
(declare-fun undef129 () Int)
(declare-fun arg6 () Int)
(declare-fun arg1 () Int)
(declare-fun undef128 () Int)
(declare-fun arg4 () Int)
(declare-fun arg5 () Int)
(declare-fun lam4n0 () Int)
(declare-fun lam4n1 () Int)
(declare-fun lam4n2 () Int)
(declare-fun lam4n3 () Int)
(declare-fun lam4n4 () Int)
(declare-fun lam4n5 () Int)
(declare-fun lam4n6 () Int)
(declare-fun lam4n7 () Int)
(declare-fun lam4n8 () Int)
(declare-fun lam4n9 () Int)
(declare-fun lam4n10 () Int)
(declare-fun lam4n12 () Int)
(declare-fun lam4n11 () Int)
(declare-fun lam5n0 () Int)
(declare-fun lam5n1 () Int)
(declare-fun lam5n2 () Int)
(declare-fun lam5n3 () Int)
(declare-fun lam5n4 () Int)
(declare-fun lam5n5 () Int)
(declare-fun lam5n6 () Int)
(declare-fun lam5n7 () Int)
(declare-fun lam5n8 () Int)
(declare-fun lam5n9 () Int)
(declare-fun lam5n10 () Int)
(declare-fun lam5n12 () Int)
(declare-fun lam5n11 () Int)
(assert ( and ( <= ( - 1 ) Nl6arg11 ) ( <= Nl6arg11 1 ) ( <= ( - 1 ) Nl6arg21 ) ( <= Nl6arg21 1 ) ( <= ( - 1 ) Nl6arg31 ) ( <= Nl6arg31 1 ) ( <= ( - 1 ) Nl6arg41 ) ( <= Nl6arg41 1 ) ( <= ( - 1 ) Nl6arg51 ) ( <= Nl6arg51 1 ) ( <= ( - 1 ) Nl6arg61 ) ( <= Nl6arg61 1 ) ))
(assert ( or ( and ( <= ( + 1 ( * ( - 1 ) undef1 ) ) 0 ) ( <= ( + 1 ( * ( - 1 ) undef75 ) ) 0 ) ( <= ( + 1 ( * ( - 1 ) undef83 ) ) 0 ) ( <= ( + 1 ( * ( - 1 ) undef585 ) ) 0 ) ( <= ( + ( * ( - 1 ) arg3 ) undef586 ) 0 ) ( <= ( + undef1 ( * ( - 1 ) undef585 ) ) 0 ) ( <= ( + ( * ( - 1 ) undef1 ) undef75 ) 0 ) ( <= ( + ( * ( - 1 ) undef74 ) undef84 ) 0 ) ( <= ( + ( * ( - 1 ) undef74 ) undef85 ) 0 ) ( <= ( + ( * ( - 1 ) undef75 ) undef83 ) 0 ) ( <= ( + ( * ( - 1 ) undef84 ) undef317 ) 0 ) ( <= ( + ( * ( - 1 ) undef85 ) undef317 ) 0 ) ( <= ( + ( * ( - 1 ) undef317 ) undef326 ) 0 ) ( <= ( + 2 ( * ( - 1 ) undef74 ) undef83 ) 0 ) ( not ( <= ( + ( - 1 ) undef77 ) 0 ) ) ( <= ( + 3 ( * ( - 1 ) undef74 ) ) 0 ) ( <= ( + 3 ( * ( - 1 ) undef84 ) ) 0 ) ( <= ( + 3 ( * ( - 1 ) undef85 ) ) 0 ) ( <= ( + 3 ( * ( - 1 ) undef317 ) ) 0 ) ( <= ( + 3 ( * ( - 1 ) undef326 ) ) 0 ) ( <= ( + ( - 2 ) ( * ( - 1 ) undef1 ) undef74 ) 0 ) ( <= ( + ( - 2 ) ( * ( - 1 ) undef75 ) undef84 ) 0 ) ( <= ( + ( - 2 ) ( * ( - 1 ) undef75 ) undef85 ) 0 ) ( <= ( + ( - 2 ) ( * ( - 1 ) undef83 ) undef317 ) 0 ) ( = arg3 0 ) ( = ( + undef77 ( * ( - 1 ) undef88 ) ) 0 ) ( = ( * ( - 1 ) undef586 ) 0 ) ( <= ( + ( + ( + ( + ( + ( + ( + Nl6CT1 ( * Nl6arg11 0 ) ) ( * Nl6arg21 0 ) ) ( * Nl6arg31 0 ) ) ( * Nl6arg41 0 ) ) ( * Nl6arg51 0 ) ) ( * Nl6arg61 0 ) ) ( * ( + 0 ( * Nl6arg51 1 ) ) undef77 ) ( * ( + 0 ( * Nl6arg11 1 ) ) undef83 ) ( * ( + 0 ( * Nl6arg21 1 ) ) undef84 ) ( * ( + 0 ( * Nl6arg31 1 ) ) undef85 ) ( * ( + 0 ( * Nl6arg61 1 ) ) undef88 ) ( * ( + 0 ( * Nl6arg41 1 ) ) undef586 ) ) 0 ) ) ( and ( <= ( + 1 ( * ( - 1 ) undef1 ) ) 0 ) ( <= ( + 1 ( * ( - 1 ) undef75 ) ) 0 ) ( <= ( + 1 ( * ( - 1 ) undef92 ) ) 0 ) ( <= ( + 1 ( * ( - 1 ) undef585 ) ) 0 ) ( <= ( + ( * ( - 1 ) arg3 ) undef586 ) 0 ) ( <= ( + undef1 ( * ( - 1 ) undef585 ) ) 0 ) ( <= ( + ( * ( - 1 ) undef1 ) undef75 ) 0 ) ( <= ( + ( * ( - 1 ) undef74 ) undef93 ) 0 ) ( <= ( + ( * ( - 1 ) undef74 ) undef94 ) 0 ) ( <= ( + ( * ( - 1 ) undef75 ) undef92 ) 0 ) ( <= ( + ( * ( - 1 ) undef93 ) undef317 ) 0 ) ( <= ( + ( * ( - 1 ) undef94 ) undef317 ) 0 ) ( <= ( + ( * ( - 1 ) undef317 ) undef326 ) 0 ) ( <= ( + 2 ( * ( - 1 ) undef74 ) undef92 ) 0 ) ( not ( <= ( + ( - 1 ) undef77 ) 0 ) ) ( <= ( + 3 ( * ( - 1 ) undef74 ) ) 0 ) ( <= ( + 3 ( * ( - 1 ) undef93 ) ) 0 ) ( <= ( + 3 ( * ( - 1 ) undef94 ) ) 0 ) ( <= ( + 3 ( * ( - 1 ) undef317 ) ) 0 ) ( <= ( + 3 ( * ( - 1 ) undef326 ) ) 0 ) ( <= ( + ( - 2 ) ( * ( - 1 ) undef1 ) undef74 ) 0 ) ( <= ( + ( - 2 ) ( * ( - 1 ) undef75 ) undef93 ) 0 ) ( <= ( + ( - 2 ) ( * ( - 1 ) undef75 ) undef94 ) 0 ) ( <= ( + ( - 2 ) ( * ( - 1 ) undef92 ) undef317 ) 0 ) ( = arg3 0 ) ( = ( * ( - 1 ) undef586 ) 0 ) ( <= ( + ( + ( + ( + ( + ( + ( + Nl6CT1 ( * Nl6arg11 0 ) ) ( * Nl6arg21 0 ) ) ( * Nl6arg31 0 ) ) ( * Nl6arg41 0 ) ) ( * Nl6arg51 0 ) ) ( * Nl6arg61 0 ) ) ( * ( + ( + 0 ( * Nl6arg51 1 ) ) ( * Nl6arg61 1 ) ) undef77 ) ( * ( + 0 ( * Nl6arg11 1 ) ) undef92 ) ( * ( + 0 ( * Nl6arg21 1 ) ) undef93 ) ( * ( + 0 ( * Nl6arg31 1 ) ) undef94 ) ( * ( + 0 ( * Nl6arg41 1 ) ) undef586 ) ) 0 ) ) ( and ( <= ( + 1 ( * ( - 1 ) arg2 ) ) 0 ) ( <= ( + 1 ( * ( - 1 ) undef83 ) ) 0 ) ( <= ( + 1 ( * ( - 1 ) undef129 ) ) 0 ) ( <= ( + ( - 1 ) ( * ( - 1 ) arg3 ) arg6 ) 0 ) ( <= ( + ( * ( - 1 ) arg1 ) undef128 ) 0 ) ( <= ( + ( * ( - 1 ) arg2 ) undef129 ) 0 ) ( <= ( + ( * ( - 1 ) arg4 ) arg6 ) 0 ) ( <= ( * ( - 1 ) arg6 ) 0 ) ( <= ( + undef83 ( * ( - 1 ) undef129 ) ) 0 ) ( <= ( + undef84 ( * ( - 1 ) undef128 ) ) 0 ) ( <= ( + ( * ( - 1 ) undef84 ) undef317 ) 0 ) ( <= ( + undef85 ( * ( - 1 ) undef128 ) ) 0 ) ( <= ( + ( * ( - 1 ) undef85 ) undef317 ) 0 ) ( <= ( + ( * ( - 1 ) undef317 ) undef326 ) 0 ) ( <= ( + 2 ( * ( - 1 ) arg1 ) undef129 ) 0 ) ( not ( <= ( + ( - 1 ) arg5 ) 0 ) ) ( <= ( + 2 undef83 ( * ( - 1 ) undef128 ) ) 0 ) ( <= ( + 3 ( * ( - 1 ) arg1 ) ) 0 ) ( <= ( + 3 ( * ( - 1 ) undef84 ) ) 0 ) ( <= ( + 3 ( * ( - 1 ) undef85 ) ) 0 ) ( <= ( + 3 ( * ( - 1 ) undef128 ) ) 0 ) ( <= ( + 3 ( * ( - 1 ) undef317 ) ) 0 ) ( <= ( + 3 ( * ( - 1 ) undef326 ) ) 0 ) ( <= ( + ( - 2 ) ( * ( - 1 ) arg2 ) undef128 ) 0 ) ( <= ( + ( - 2 ) ( * ( - 1 ) undef83 ) undef317 ) 0 ) ( <= ( + ( - 2 ) undef84 ( * ( - 1 ) undef129 ) ) 0 ) ( <= ( + ( - 2 ) undef85 ( * ( - 1 ) undef129 ) ) 0 ) ( = ( + arg5 ( * ( - 1 ) undef88 ) ) 0 ) ( <= ( + ( + ( + ( + ( + ( + Nl6CT1 ( * Nl6arg11 0 ) ) ( * Nl6arg21 0 ) ) ( * Nl6arg31 0 ) ) ( * Nl6arg41 0 ) ) ( * Nl6arg61 0 ) ) ( * ( + 0 Nl6arg51 ) arg5 ) ( * ( + 0 ( * Nl6arg41 1 ) ) arg6 ) ( * ( + 0 ( * Nl6arg11 1 ) ) undef83 ) ( * ( + 0 ( * Nl6arg21 1 ) ) undef84 ) ( * ( + 0 ( * Nl6arg31 1 ) ) undef85 ) ( * ( + 0 ( * Nl6arg61 1 ) ) undef88 ) ) 0 ) ) ( and ( <= ( + 1 ( * ( - 1 ) arg2 ) ) 0 ) ( <= ( + 1 ( * ( - 1 ) undef92 ) ) 0 ) ( <= ( + 1 ( * ( - 1 ) undef129 ) ) 0 ) ( <= ( + ( - 1 ) ( * ( - 1 ) arg3 ) arg6 ) 0 ) ( <= ( + ( * ( - 1 ) arg1 ) undef128 ) 0 ) ( <= ( + ( * ( - 1 ) arg2 ) undef129 ) 0 ) ( <= ( + ( * ( - 1 ) arg4 ) arg6 ) 0 ) ( <= ( * ( - 1 ) arg6 ) 0 ) ( <= ( + undef92 ( * ( - 1 ) undef129 ) ) 0 ) ( <= ( + undef93 ( * ( - 1 ) undef128 ) ) 0 ) ( <= ( + ( * ( - 1 ) undef93 ) undef317 ) 0 ) ( <= ( + undef94 ( * ( - 1 ) undef128 ) ) 0 ) ( <= ( + ( * ( - 1 ) undef94 ) undef317 ) 0 ) ( <= ( + ( * ( - 1 ) undef317 ) undef326 ) 0 ) ( <= ( + 2 ( * ( - 1 ) arg1 ) undef129 ) 0 ) ( not ( <= ( + ( - 1 ) arg5 ) 0 ) ) ( <= ( + 2 undef92 ( * ( - 1 ) undef128 ) ) 0 ) ( <= ( + 3 ( * ( - 1 ) arg1 ) ) 0 ) ( <= ( + 3 ( * ( - 1 ) undef93 ) ) 0 ) ( <= ( + 3 ( * ( - 1 ) undef94 ) ) 0 ) ( <= ( + 3 ( * ( - 1 ) undef128 ) ) 0 ) ( <= ( + 3 ( * ( - 1 ) undef317 ) ) 0 ) ( <= ( + 3 ( * ( - 1 ) undef326 ) ) 0 ) ( <= ( + ( - 2 ) ( * ( - 1 ) arg2 ) undef128 ) 0 ) ( <= ( + ( - 2 ) ( * ( - 1 ) undef92 ) undef317 ) 0 ) ( <= ( + ( - 2 ) undef93 ( * ( - 1 ) undef129 ) ) 0 ) ( <= ( + ( - 2 ) undef94 ( * ( - 1 ) undef129 ) ) 0 ) ( <= ( + ( + ( + ( + ( + ( + Nl6CT1 ( * Nl6arg11 0 ) ) ( * Nl6arg21 0 ) ) ( * Nl6arg31 0 ) ) ( * Nl6arg41 0 ) ) ( * Nl6arg61 0 ) ) ( * ( + ( + 0 Nl6arg51 ) ( * Nl6arg61 1 ) ) arg5 ) ( * ( + 0 ( * Nl6arg41 1 ) ) arg6 ) ( * ( + 0 ( * Nl6arg11 1 ) ) undef92 ) ( * ( + 0 ( * Nl6arg21 1 ) ) undef93 ) ( * ( + 0 ( * Nl6arg31 1 ) ) undef94 ) ) 0 ) ) ))
(assert ( or ( or ( and ( >= lam4n0 0 ) ( >= lam4n1 0 ) ( >= lam4n2 0 ) ( >= lam4n3 0 ) ( >= lam4n4 0 ) ( >= lam4n5 0 ) ( >= lam4n6 0 ) ( >= lam4n7 0 ) ( >= lam4n8 0 ) ( >= lam4n9 0 ) ( >= lam4n10 0 ) ( >= lam4n12 0 ) ( > ( + ( * 1 lam4n0 ) ( * 1 lam4n1 ) ( * 3 lam4n6 ) ( * 3 lam4n7 ) ( * 3 lam4n8 ) ( * 3 lam4n9 ) ( * ( - 2 ) lam4n10 ) ( * Nl6CT1 lam4n12 ) ( - 1 ) ) 0 ) ( = ( + ( * ( - 1 ) lam4n0 ) ( * ( - 1 ) lam4n10 ) ( * Nl6arg11 lam4n12 ) ) 0 ) ( = ( + ( * ( - 1 ) lam4n2 ) ( * ( - 1 ) lam4n6 ) ( * Nl6arg21 lam4n12 ) ) 0 ) ( = ( + ( * ( - 1 ) lam4n3 ) ( * ( - 1 ) lam4n7 ) ( * Nl6arg31 lam4n12 ) ) 0 ) ( = ( + ( * ( - 1 ) lam4n4 ) ( * Nl6arg41 lam4n12 ) ) 0 ) ( = ( + ( * ( - 1 ) lam4n1 ) ( * 1 lam4n11 ) ( * Nl6arg51 lam4n12 ) ) 0 ) ( = ( + ( * ( - 1 ) lam4n11 ) ( * Nl6arg61 lam4n12 ) ) 0 ) ( = ( + ( * 1 lam4n2 ) ( * 1 lam4n3 ) ( * ( - 1 ) lam4n5 ) ( * ( - 1 ) lam4n8 ) ( * 1 lam4n10 ) ) 0 ) ( = ( + ( * 1 lam4n5 ) ( * ( - 1 ) lam4n9 ) ) 0 ) ) ( and ( >= lam5n0 0 ) ( >= lam5n1 0 ) ( >= lam5n2 0 ) ( >= lam5n3 0 ) ( >= lam5n4 0 ) ( >= lam5n5 0 ) ( >= lam5n6 0 ) ( >= lam5n7 0 ) ( >= lam5n8 0 ) ( >= lam5n9 0 ) ( >= lam5n10 0 ) ( >= lam5n12 0 ) ( > ( + ( * 1 lam5n0 ) ( * 1 lam5n1 ) ( * 3 lam5n6 ) ( * 3 lam5n7 ) ( * 3 lam5n8 ) ( * 3 lam5n9 ) ( * ( - 2 ) lam5n10 ) ( * Nl6CT1 lam5n12 ) 2 ) 0 ) ( = ( + ( * ( - 1 ) lam5n0 ) ( * ( - 1 ) lam5n10 ) ( * Nl6arg11 lam5n12 ) ) 0 ) ( = ( + ( * ( - 1 ) lam5n2 ) ( * ( - 1 ) lam5n6 ) ( * Nl6arg21 lam5n12 ) ) 0 ) ( = ( + ( * ( - 1 ) lam5n3 ) ( * ( - 1 ) lam5n7 ) ( * Nl6arg31 lam5n12 ) ) 0 ) ( = ( + ( * ( - 1 ) lam5n4 ) ( * Nl6arg41 lam5n12 ) ) 0 ) ( = ( + ( * ( - 1 ) lam5n1 ) ( * 1 lam5n11 ) ( * Nl6arg51 lam5n12 ) ( - 1 ) ) 0 ) ( = ( + ( * ( - 1 ) lam5n11 ) ( * Nl6arg61 lam5n12 ) ) 0 ) ( = ( + ( * 1 lam5n2 ) ( * 1 lam5n3 ) ( * ( - 1 ) lam5n5 ) ( * ( - 1 ) lam5n8 ) ( * 1 lam5n10 ) ) 0 ) ( = ( + ( * 1 lam5n5 ) ( * ( - 1 ) lam5n9 ) ) 0 ) ) ) ( and ( or ( and ( <= ( + 1 ( * ( - 1 ) undef1 ) ) 0 ) ( <= ( + 1 ( * ( - 1 ) undef75 ) ) 0 ) ( <= ( + 1 ( * ( - 1 ) undef83 ) ) 0 ) ( <= ( + 1 ( * ( - 1 ) undef585 ) ) 0 ) ( <= ( + ( * ( - 1 ) arg3 ) undef586 ) 0 ) ( <= ( + undef1 ( * ( - 1 ) undef585 ) ) 0 ) ( <= ( + ( * ( - 1 ) undef1 ) undef75 ) 0 ) ( <= ( + ( * ( - 1 ) undef74 ) undef84 ) 0 ) ( <= ( + ( * ( - 1 ) undef74 ) undef85 ) 0 ) ( <= ( + ( * ( - 1 ) undef75 ) undef83 ) 0 ) ( <= ( + ( * ( - 1 ) undef84 ) undef317 ) 0 ) ( <= ( + ( * ( - 1 ) undef85 ) undef317 ) 0 ) ( <= ( + ( * ( - 1 ) undef317 ) undef326 ) 0 ) ( <= ( + 2 ( * ( - 1 ) undef74 ) undef83 ) 0 ) ( not ( <= ( + ( - 1 ) undef77 ) 0 ) ) ( <= ( + 3 ( * ( - 1 ) undef74 ) ) 0 ) ( <= ( + 3 ( * ( - 1 ) undef84 ) ) 0 ) ( <= ( + 3 ( * ( - 1 ) undef85 ) ) 0 ) ( <= ( + 3 ( * ( - 1 ) undef317 ) ) 0 ) ( <= ( + 3 ( * ( - 1 ) undef326 ) ) 0 ) ( <= ( + ( - 2 ) ( * ( - 1 ) undef1 ) undef74 ) 0 ) ( <= ( + ( - 2 ) ( * ( - 1 ) undef75 ) undef84 ) 0 ) ( <= ( + ( - 2 ) ( * ( - 1 ) undef75 ) undef85 ) 0 ) ( <= ( + ( - 2 ) ( * ( - 1 ) undef83 ) undef317 ) 0 ) ( = arg3 0 ) ( = ( + undef77 ( * ( - 1 ) undef88 ) ) 0 ) ( = ( * ( - 1 ) undef586 ) 0 ) ( <= ( + ( + ( + ( + ( + ( + ( + Nl6CT1 ( * Nl6arg11 0 ) ) ( * Nl6arg21 0 ) ) ( * Nl6arg31 0 ) ) ( * Nl6arg41 0 ) ) ( * Nl6arg51 0 ) ) ( * Nl6arg61 0 ) ) ( * ( + 0 ( * Nl6arg51 1 ) ) undef77 ) ( * ( + 0 ( * Nl6arg11 1 ) ) undef83 ) ( * ( + 0 ( * Nl6arg21 1 ) ) undef84 ) ( * ( + 0 ( * Nl6arg31 1 ) ) undef85 ) ( * ( + 0 ( * Nl6arg61 1 ) ) undef88 ) ( * ( + 0 ( * Nl6arg41 1 ) ) undef586 ) ) 0 ) ) ( and ( <= ( + 1 ( * ( - 1 ) undef1 ) ) 0 ) ( <= ( + 1 ( * ( - 1 ) undef75 ) ) 0 ) ( <= ( + 1 ( * ( - 1 ) undef92 ) ) 0 ) ( <= ( + 1 ( * ( - 1 ) undef585 ) ) 0 ) ( <= ( + ( * ( - 1 ) arg3 ) undef586 ) 0 ) ( <= ( + undef1 ( * ( - 1 ) undef585 ) ) 0 ) ( <= ( + ( * ( - 1 ) undef1 ) undef75 ) 0 ) ( <= ( + ( * ( - 1 ) undef74 ) undef93 ) 0 ) ( <= ( + ( * ( - 1 ) undef74 ) undef94 ) 0 ) ( <= ( + ( * ( - 1 ) undef75 ) undef92 ) 0 ) ( <= ( + ( * ( - 1 ) undef93 ) undef317 ) 0 ) ( <= ( + ( * ( - 1 ) undef94 ) undef317 ) 0 ) ( <= ( + ( * ( - 1 ) undef317 ) undef326 ) 0 ) ( <= ( + 2 ( * ( - 1 ) undef74 ) undef92 ) 0 ) ( not ( <= ( + ( - 1 ) undef77 ) 0 ) ) ( <= ( + 3 ( * ( - 1 ) undef74 ) ) 0 ) ( <= ( + 3 ( * ( - 1 ) undef93 ) ) 0 ) ( <= ( + 3 ( * ( - 1 ) undef94 ) ) 0 ) ( <= ( + 3 ( * ( - 1 ) undef317 ) ) 0 ) ( <= ( + 3 ( * ( - 1 ) undef326 ) ) 0 ) ( <= ( + ( - 2 ) ( * ( - 1 ) undef1 ) undef74 ) 0 ) ( <= ( + ( - 2 ) ( * ( - 1 ) undef75 ) undef93 ) 0 ) ( <= ( + ( - 2 ) ( * ( - 1 ) undef75 ) undef94 ) 0 ) ( <= ( + ( - 2 ) ( * ( - 1 ) undef92 ) undef317 ) 0 ) ( = arg3 0 ) ( = ( * ( - 1 ) undef586 ) 0 ) ( <= ( + ( + ( + ( + ( + ( + ( + Nl6CT1 ( * Nl6arg11 0 ) ) ( * Nl6arg21 0 ) ) ( * Nl6arg31 0 ) ) ( * Nl6arg41 0 ) ) ( * Nl6arg51 0 ) ) ( * Nl6arg61 0 ) ) ( * ( + ( + 0 ( * Nl6arg51 1 ) ) ( * Nl6arg61 1 ) ) undef77 ) ( * ( + 0 ( * Nl6arg11 1 ) ) undef92 ) ( * ( + 0 ( * Nl6arg21 1 ) ) undef93 ) ( * ( + 0 ( * Nl6arg31 1 ) ) undef94 ) ( * ( + 0 ( * Nl6arg41 1 ) ) undef586 ) ) 0 ) ) ( and ( <= ( + 1 ( * ( - 1 ) arg2 ) ) 0 ) ( <= ( + 1 ( * ( - 1 ) undef83 ) ) 0 ) ( <= ( + 1 ( * ( - 1 ) undef129 ) ) 0 ) ( <= ( + ( - 1 ) ( * ( - 1 ) arg3 ) arg6 ) 0 ) ( <= ( + ( * ( - 1 ) arg1 ) undef128 ) 0 ) ( <= ( + ( * ( - 1 ) arg2 ) undef129 ) 0 ) ( <= ( + ( * ( - 1 ) arg4 ) arg6 ) 0 ) ( <= ( * ( - 1 ) arg6 ) 0 ) ( <= ( + undef83 ( * ( - 1 ) undef129 ) ) 0 ) ( <= ( + undef84 ( * ( - 1 ) undef128 ) ) 0 ) ( <= ( + ( * ( - 1 ) undef84 ) undef317 ) 0 ) ( <= ( + undef85 ( * ( - 1 ) undef128 ) ) 0 ) ( <= ( + ( * ( - 1 ) undef85 ) undef317 ) 0 ) ( <= ( + ( * ( - 1 ) undef317 ) undef326 ) 0 ) ( <= ( + 2 ( * ( - 1 ) arg1 ) undef129 ) 0 ) ( not ( <= ( + ( - 1 ) arg5 ) 0 ) ) ( <= ( + 2 undef83 ( * ( - 1 ) undef128 ) ) 0 ) ( <= ( + 3 ( * ( - 1 ) arg1 ) ) 0 ) ( <= ( + 3 ( * ( - 1 ) undef84 ) ) 0 ) ( <= ( + 3 ( * ( - 1 ) undef85 ) ) 0 ) ( <= ( + 3 ( * ( - 1 ) undef128 ) ) 0 ) ( <= ( + 3 ( * ( - 1 ) undef317 ) ) 0 ) ( <= ( + 3 ( * ( - 1 ) undef326 ) ) 0 ) ( <= ( + ( - 2 ) ( * ( - 1 ) arg2 ) undef128 ) 0 ) ( <= ( + ( - 2 ) ( * ( - 1 ) undef83 ) undef317 ) 0 ) ( <= ( + ( - 2 ) undef84 ( * ( - 1 ) undef129 ) ) 0 ) ( <= ( + ( - 2 ) undef85 ( * ( - 1 ) undef129 ) ) 0 ) ( = ( + arg5 ( * ( - 1 ) undef88 ) ) 0 ) ( <= ( + ( + ( + ( + ( + ( + Nl6CT1 ( * Nl6arg11 0 ) ) ( * Nl6arg21 0 ) ) ( * Nl6arg31 0 ) ) ( * Nl6arg41 0 ) ) ( * Nl6arg61 0 ) ) ( * ( + 0 Nl6arg51 ) arg5 ) ( * ( + 0 ( * Nl6arg41 1 ) ) arg6 ) ( * ( + 0 ( * Nl6arg11 1 ) ) undef83 ) ( * ( + 0 ( * Nl6arg21 1 ) ) undef84 ) ( * ( + 0 ( * Nl6arg31 1 ) ) undef85 ) ( * ( + 0 ( * Nl6arg61 1 ) ) undef88 ) ) 0 ) ) ( and ( <= ( + 1 ( * ( - 1 ) arg2 ) ) 0 ) ( <= ( + 1 ( * ( - 1 ) undef92 ) ) 0 ) ( <= ( + 1 ( * ( - 1 ) undef129 ) ) 0 ) ( <= ( + ( - 1 ) ( * ( - 1 ) arg3 ) arg6 ) 0 ) ( <= ( + ( * ( - 1 ) arg1 ) undef128 ) 0 ) ( <= ( + ( * ( - 1 ) arg2 ) undef129 ) 0 ) ( <= ( + ( * ( - 1 ) arg4 ) arg6 ) 0 ) ( <= ( * ( - 1 ) arg6 ) 0 ) ( <= ( + undef92 ( * ( - 1 ) undef129 ) ) 0 ) ( <= ( + undef93 ( * ( - 1 ) undef128 ) ) 0 ) ( <= ( + ( * ( - 1 ) undef93 ) undef317 ) 0 ) ( <= ( + undef94 ( * ( - 1 ) undef128 ) ) 0 ) ( <= ( + ( * ( - 1 ) undef94 ) undef317 ) 0 ) ( <= ( + ( * ( - 1 ) undef317 ) undef326 ) 0 ) ( <= ( + 2 ( * ( - 1 ) arg1 ) undef129 ) 0 ) ( not ( <= ( + ( - 1 ) arg5 ) 0 ) ) ( <= ( + 2 undef92 ( * ( - 1 ) undef128 ) ) 0 ) ( <= ( + 3 ( * ( - 1 ) arg1 ) ) 0 ) ( <= ( + 3 ( * ( - 1 ) undef93 ) ) 0 ) ( <= ( + 3 ( * ( - 1 ) undef94 ) ) 0 ) ( <= ( + 3 ( * ( - 1 ) undef128 ) ) 0 ) ( <= ( + 3 ( * ( - 1 ) undef317 ) ) 0 ) ( <= ( + 3 ( * ( - 1 ) undef326 ) ) 0 ) ( <= ( + ( - 2 ) ( * ( - 1 ) arg2 ) undef128 ) 0 ) ( <= ( + ( - 2 ) ( * ( - 1 ) undef92 ) undef317 ) 0 ) ( <= ( + ( - 2 ) undef93 ( * ( - 1 ) undef129 ) ) 0 ) ( <= ( + ( - 2 ) undef94 ( * ( - 1 ) undef129 ) ) 0 ) ( <= ( + ( + ( + ( + ( + ( + Nl6CT1 ( * Nl6arg11 0 ) ) ( * Nl6arg21 0 ) ) ( * Nl6arg31 0 ) ) ( * Nl6arg41 0 ) ) ( * Nl6arg61 0 ) ) ( * ( + ( + 0 Nl6arg51 ) ( * Nl6arg61 1 ) ) arg5 ) ( * ( + 0 ( * Nl6arg41 1 ) ) arg6 ) ( * ( + 0 ( * Nl6arg11 1 ) ) undef92 ) ( * ( + 0 ( * Nl6arg21 1 ) ) undef93 ) ( * ( + 0 ( * Nl6arg31 1 ) ) undef94 ) ) 0 ) ) ) false ) ))
(check-sat)
(exit)
